p cnf 20 24
1 2 3 0
-1 4 5 0
2 -3 6 0
1 2 3 0
-1 4 5 0
2 -3 6 0
7 8 9 0
-7 10 11 0
8 -9 12 0
7 8 9 0
-7 10 11 0
8 -9 12 0
13 14 15 0
-13 16 17 0
14 -15 18 0
13 14 15 0
-13 16 17 0
14 -15 18 0
19 20 1 0
-19 2 3 0
20 -1 4 0
19 20 1 0
-19 2 3 0
20 -1 4 0